
Gurobi 11.0.0 (linux64) logging started Mon Jul 22 16:39:17 2024

Set parameter LogFile to value "/lustre1/scratch/348/vsc34888/JointResearch/05.Models/06.Benchmarking/M.Random_forest/RTS24_mod2_ByStages_nc70/openStarNet_RTS24_mod2_ByStages_nc70.log"
Set parameter Method to value 2
Set parameter MIPFocus to value 1
Set parameter Presolve to value 2
Set parameter RINS to value 100
Set parameter MIPGap to value 0.01
Set parameter Threads to value 36
Set parameter TimeLimit to value 259200
Set parameter IterationLimit to value 760000000
Gurobi Optimizer version 11.0.0 build v11.0.0rc2 (linux64 - "Rocky Linux 8.9 (Green Obsidian)")

CPU model: Intel(R) Xeon(R) Gold 6240 CPU @ 2.60GHz, instruction set [SSE2|AVX|AVX2|AVX512]
Thread count: 36 physical cores, 36 logical processors, using up to 36 threads

Optimize a model with 24853 rows, 16801 columns and 67773 nonzeros
Model fingerprint: 0xaa857732
Variable types: 16780 continuous, 21 integer (21 binary)
Coefficient statistics:
  Matrix range     [1e-03, 6e+02]
  Objective range  [1e+00, 1e+00]
  Bounds range     [4e-05, 3e+00]
  RHS range        [4e-05, 3e+00]
Presolve removed 14798 rows and 8505 columns
Presolve time: 0.12s
Presolved: 10055 rows, 8296 columns, 36315 nonzeros
Variable types: 8275 continuous, 21 integer (21 binary)
Found heuristic solution: objective 107.4345271
Root relaxation presolve removed 7 rows and 7 columns
Root relaxation presolved: 10048 rows, 8289 columns, 36301 nonzeros

Root barrier log...

Ordering time: 0.00s

Barrier statistics:
 Dense cols : 21
 AA' NZ     : 6.742e+04
 Factor NZ  : 1.931e+05 (roughly 9 MB of memory)
 Factor Ops : 3.960e+06 (less than 1 second per iteration)
 Threads    : 36

                  Objective                Residual
Iter       Primal          Dual         Primal    Dual     Compl     Time
   0   1.71946119e+06 -8.28709841e+07  1.39e+01 1.68e+02  1.98e+04     0s
   1   4.96537433e+05 -3.66901141e+07  3.92e+00 3.06e-09  4.96e+03     0s
   2   5.79823287e+04 -2.95904946e+07  3.77e-01 1.89e-09  1.55e+03     0s
   3   2.24129748e+04 -3.02042410e+06  5.04e-02 3.18e-10  1.40e+02     0s
   4   1.43384314e+04 -1.83541680e+05  1.92e-03 5.29e-11  8.48e+00     0s
   5   4.56039372e+03 -4.64491945e+04  2.06e-04 1.21e-11  2.18e+00     0s
   6   1.22736101e+03 -8.96020844e+03  2.44e-05 2.07e-12  4.34e-01     0s
   7   5.37231508e+02 -2.79512942e+03  5.26e-06 1.82e-12  1.42e-01     0s
   8   2.97620903e+02 -9.15886504e+02  1.58e-06 9.09e-13  5.17e-02     0s
   9   1.90266062e+02 -3.79947891e+02  7.66e-07 1.82e-12  2.43e-02     0s
  10   1.07665054e+02 -9.14061587e+01  2.42e-07 9.09e-13  8.49e-03     0s
  11   7.61122354e+01  1.99579355e+01  9.59e-08 1.82e-12  2.39e-03     0s
  12   6.59604687e+01  3.32002753e+01  5.68e-08 1.82e-12  1.40e-03     0s
  13   6.26084768e+01  3.98373975e+01  4.44e-08 9.09e-13  9.71e-04     0s
  14   5.94152315e+01  4.15641666e+01  3.14e-08 9.09e-13  7.61e-04     0s
  15   5.66666367e+01  4.38791789e+01  2.08e-08 4.55e-13  5.45e-04     0s
  16   5.47137881e+01  4.59642307e+01  1.39e-08 9.09e-13  3.73e-04     0s
  17   5.34640228e+01  4.95941558e+01  8.96e-09 1.82e-12  1.65e-04     0s
  18   5.22452914e+01  5.00491315e+01  4.79e-09 9.09e-13  9.36e-05     0s
  19   5.16122428e+01  5.05345359e+01  2.31e-09 1.82e-12  4.59e-05     0s
  20   5.13039600e+01  5.07593937e+01  1.10e-09 1.82e-12  2.32e-05     0s
  21   5.11613761e+01  5.09299840e+01  5.69e-10 1.82e-12  9.87e-06     0s
  22   5.10828878e+01  5.09564437e+01  2.74e-10 9.09e-13  5.39e-06     0s
  23   5.10559224e+01  5.09615919e+01  1.75e-10 9.09e-13  4.02e-06     0s
  24   5.10329297e+01  5.09752727e+01  9.19e-11 1.82e-12  2.46e-06     0s
  25   5.10111838e+01  5.10011785e+01  2.53e-10 1.82e-12  4.27e-07     0s
  26   5.10081088e+01  5.10064504e+01  1.98e-10 9.09e-13  7.07e-08     0s
  27   5.10078026e+01  5.10067978e+01  1.47e-10 1.82e-12  4.28e-08     0s
  28   5.10075990e+01  5.10072270e+01  2.01e-10 1.82e-12  1.59e-08     0s
  29   5.10075463e+01  5.10073988e+01  1.87e-10 1.76e-12  6.29e-09     0s
  30   5.10075437e+01  5.10075224e+01  1.84e-10 8.44e-11  9.10e-10     0s
  31   5.10075419e+01  5.10075407e+01  3.46e-10 9.09e-13  5.45e-11     0s
  32   5.10075414e+01  5.10075414e+01  1.23e-09 1.82e-12  1.99e-12     0s

Barrier solved model in 32 iterations and 0.45 seconds (0.42 work units)
Optimal objective 5.10075414e+01


Root relaxation: objective 5.100754e+01, 1339 iterations, 0.30 seconds (0.19 work units)

    Nodes    |    Current Node    |     Objective Bounds      |     Work
 Expl Unexpl |  Obj  Depth IntInf | Incumbent    BestBd   Gap | It/Node Time

     0     0   51.00754    0   17  107.43453   51.00754  52.5%     -    0s
     0     0   51.98334    0   11  107.43453   51.98334  51.6%     -    0s
H    0     0                     103.0482802   51.98334  49.6%     -    1s
H    0     0                      95.6358302   51.99604  45.6%     -    1s
     0     0   51.99604    0   11   95.63583   51.99604  45.6%     -    1s
H    0     0                      91.9891582   52.19291  43.3%     -    1s
     0     0   52.27048    0   11   91.98916   52.27048  43.2%     -    1s
     0     0   52.27048    0   11   91.98916   52.27048  43.2%     -    1s
     0     0   52.27048    0   11   91.98916   52.27048  43.2%     -    1s
H    0     0                      88.4276319   52.42791  40.7%     -    1s
     0     0   52.42791    0   11   88.42763   52.42791  40.7%     -    1s
H    0     0                      86.1839150   52.45191  39.1%     -    1s
     0     0   52.45191    0   13   86.18392   52.45191  39.1%     -    1s
     0     0   52.45294    0   11   86.18392   52.45294  39.1%     -    1s
H    0     0                      86.0945384   52.53525  39.0%     -    2s
     0     0   52.53525    0   11   86.09454   52.53525  39.0%     -    2s
     0     0   52.53913    0   11   86.09454   52.53913  39.0%     -    2s
     0     0   52.53913    0   11   86.09454   52.53913  39.0%     -    2s
H    0     0                      85.2250680   52.53913  38.4%     -    2s
     0     0   52.72319    0   11   85.22507   52.72319  38.1%     -    2s
H    0     0                      73.2213873   52.72319  28.0%     -   12s
     0     2   52.72319    0   11   73.22139   52.72319  28.0%     -   13s
    63   100   65.89665    6   13   73.22139   56.45696  22.9%   565   15s
H  105   136                      71.3513891   57.48930  19.4%   480   18s
   393   243   67.67557   11   10   71.35139   57.48930  19.4%   452   20s
  1199   266   66.79147    8   12   71.35139   59.41877  16.7%   324   41s
  1796   258   69.62852   12    8   71.35139   61.70581  13.5%   285   53s
  2196   272     cutoff   11        71.35139   64.25681  9.94%   266   67s

Cutting planes:
  Learned: 1
  Gomory: 1
  Implied bound: 14
  MIR: 338
  Relax-and-lift: 34

Explored 3290 nodes (730279 simplex iterations) in 67.99 seconds (75.38 work units)
Thread count was 36 (of 36 available processors)

Solution count 10: 71.3514 73.2214 85.2251 ... 107.435

Optimal solution found (tolerance 1.00e-02)
Best objective 7.135138912074e+01, best bound 7.135138912074e+01, gap 0.0000%

Gurobi 11.0.0 (linux64) logging started Mon Jul 22 16:40:28 2024

Set parameter LogFile to value "/lustre1/scratch/348/vsc34888/JointResearch/05.Models/06.Benchmarking/M.Random_forest/RTS24_mod2_ByStages_nc70/openStarNet_RTS24_mod2_ByStages_nc70.log"
Set parameter Method to value 2
Set parameter MIPFocus to value 1
Set parameter Presolve to value 2
Set parameter RINS to value 100
Set parameter MIPGap to value 0.01
Set parameter Threads to value 36
Set parameter TimeLimit to value 259200
Set parameter IterationLimit to value 760000000
Gurobi Optimizer version 11.0.0 build v11.0.0rc2 (linux64 - "Rocky Linux 8.9 (Green Obsidian)")

CPU model: Intel(R) Xeon(R) Gold 6240 CPU @ 2.60GHz, instruction set [SSE2|AVX|AVX2|AVX512]
Thread count: 36 physical cores, 36 logical processors, using up to 36 threads

Optimize a model with 24853 rows, 16780 columns and 61872 nonzeros
Model fingerprint: 0xbe8cf0a3
Coefficient statistics:
  Matrix range     [1e-03, 6e+02]
  Objective range  [1e+00, 1e+00]
  Bounds range     [4e-05, 3e+00]
  RHS range        [4e-05, 3e+01]
Presolve removed 20937 rows and 9653 columns
Presolve time: 0.03s
Presolved: 3916 rows, 7202 columns, 17555 nonzeros

Ordering time: 0.00s

Barrier statistics:
 AA' NZ     : 1.006e+04
 Factor NZ  : 3.573e+04 (roughly 4 MB of memory)
 Factor Ops : 4.988e+05 (less than 1 second per iteration)
 Threads    : 1

                  Objective                Residual
Iter       Primal          Dual         Primal    Dual     Compl     Time
   0   2.40697946e+07 -3.61719431e+07  9.21e+01 1.24e+03  2.49e+05     0s
   1   1.93540854e+06 -3.48482975e+07  7.20e+00 1.80e+03  2.20e+04     0s
   2   1.64867361e+05 -1.97066080e+07  5.92e-01 5.98e-11  2.81e+03     0s
   3   5.75120041e+04 -7.45535063e+06  1.91e-01 4.80e-11  8.17e+02     0s
   4   2.95603683e+04 -1.89879013e+06  3.86e-02 5.46e-11  1.73e+02     0s
   5   1.87158359e+04 -3.59066445e+05  1.23e-03 1.82e-11  3.06e+01     0s
   6   9.29058213e+03 -2.30330595e+05  9.94e-05 1.82e-11  1.93e+01     0s
   7   4.04719526e+03 -4.19808170e+04  5.57e-08 2.91e-11  3.71e+00     0s
   8   9.62957419e+02 -4.19709327e+03  2.16e-10 7.28e-12  4.15e-01     0s
   9   3.69936769e+02 -9.93413043e+02  1.46e-10 7.28e-12  1.10e-01     0s
  10   2.41397135e+02 -3.00587672e+02  6.44e-11 3.64e-12  4.36e-02     0s
  11   1.60578960e+02 -9.83799960e+01  1.47e-10 3.64e-12  2.08e-02     0s
  12   1.11027035e+02  1.33979272e+00  1.47e-10 7.28e-12  8.83e-03     0s
  13   8.33306926e+01  4.32728567e+01  4.39e-10 7.28e-12  3.22e-03     0s
  14   7.35744394e+01  6.69769096e+01  3.35e-10 7.28e-12  5.31e-04     0s
  15   7.19627610e+01  6.99543088e+01  4.02e-10 3.64e-12  1.62e-04     0s
  16   7.15334993e+01  7.08340269e+01  6.23e-10 7.28e-12  5.63e-05     0s
  17   7.14097576e+01  7.11898701e+01  6.73e-10 7.28e-12  1.77e-05     0s
  18   7.13634773e+01  7.13022203e+01  1.82e-09 3.64e-12  4.93e-06     0s
  19   7.13522134e+01  7.13487195e+01  1.95e-09 3.64e-12  2.81e-07     0s
  20   7.13513983e+01  7.13513689e+01  6.40e-10 7.28e-12  2.37e-09     0s
  21   7.13513891e+01  7.13513891e+01  1.08e-09 3.64e-12  2.37e-12     0s
  22   7.13513891e+01  7.13513891e+01  2.74e-12 7.28e-12  3.49e-16     0s

Barrier solved model in 22 iterations and 0.09 seconds (0.08 work units)
Optimal objective 7.13513891e+01

Crossover log...

     894 DPushes remaining with DInf 0.0000000e+00                 0s
       0 DPushes remaining with DInf 0.0000000e+00                 0s

     219 PPushes remaining with PInf 0.0000000e+00                 0s
       0 PPushes remaining with PInf 0.0000000e+00                 0s

  Push phase complete: Pinf 0.0000000e+00, Dinf 1.6367262e-12      0s

Iteration    Objective       Primal Inf.    Dual Inf.      Time
     251    7.1351389e+01   0.000000e+00   0.000000e+00      0s

Use crossover to convert LP symmetric solution to basic solution...
Crossover log...

       0 DPushes remaining with DInf 0.0000000e+00                 0s

     153 PPushes remaining with PInf 0.0000000e+00                 0s
       0 PPushes remaining with PInf 0.0000000e+00                 0s

  Push phase complete: Pinf 0.0000000e+00, Dinf 4.7339167e-13      0s

Iteration    Objective       Primal Inf.    Dual Inf.      Time
     424    7.1351389e+01   0.000000e+00   0.000000e+00      0s

Solved in 424 iterations and 0.12 seconds (0.10 work units)
Optimal objective  7.135138912e+01
